(set-option :unsat_core true)
(set-option :smt.string_solver z3str3)
(declare-const v9 Bool)
(declare-const Str17 String)
(declare-const Str18 String)
(assert (! (= true true true true true true true true true true (not v9)) :named IP_5))
(assert (! v9 :named IP_12))
(check-sat-assuming ((! (= true true true) :named IP_4) (! (str.contains Str18 Str17) :named IP_15)))
(check-sat)